<number of tasks>
20

<cycle time>
1000

<order strength>
0,853


<task times>
1 64
2 472
3 57
4 279
5 59
6 135
7 237
8 465
9 245
10 381
11 80
12 172
13 119
14 157
15 286
16 67
17 497
18 298
19 224
20 36

<precedence relations>
1,5
2,5
3,4
3,5
4,6
5,6
6,7
6,8
6,9
7,10
7,11
8,11
8,12
9,10
9,14
10,12
11,13
11,14
12,15
12,18
13,15
13,16
14,15
14,18
15,17
16,17
16,18
17,19
17,20
18,19

<end>
